PARAMETER_FILE = even/even_complete_graph_new/par/random115.par
PROBLEM_FILE = even/even_complete_graph_new/mat/random115.tsp
Successes/Runs = 0/10
Cost.min = 804, Cost.avg = 804.00, Cost.max = 804
Gap.min = 0.0000%, Gap.avg = 0.0000%, Gap.max = 0.0000%
Trials.min = 1000, Trials.avg = 1000.0, Trials.max = 1000
Time.min = 0.66 sec., Time.avg = 0.87 sec., Time.max = 1.08 sec.
Time.total = 8.76 sec.
